(declare-const X String)
; Host\x3a\s+Agent\s+Host\x3AUser-Agent\x3A\.cfgUser-Agent\x3A
(assert (not (str.in_re X (re.++ (str.to_re "Host:") (re.+ (re.union (str.to_re " ") (str.to_re "\u{9}") (str.to_re "\u{a}") (str.to_re "\u{c}") (str.to_re "\u{d}"))) (str.to_re "Agent") (re.+ (re.union (str.to_re " ") (str.to_re "\u{9}") (str.to_re "\u{a}") (str.to_re "\u{c}") (str.to_re "\u{d}"))) (str.to_re "Host:User-Agent:.cfgUser-Agent:\u{a}")))))
(check-sat)
